# package cuda gpu/node 1 0
package omp 2 force/neigh

units 		metal
dimension	3
boundary	p	p	p
atom_style	atomic
lattice diamond 3.5656 orient x 1 0 0 orient y 0 1 0
region		whole block 0 10 0 10 0 10
create_box	1 whole
region		box block INF INF INF INF INF INF
create_atoms 1 region box

mass 1 12 


pair_style	tersoff
pair_coeff	* * BNC.tersoff C

velocity all create 300 102456 rot yes dist gaussian

thermo 10000
thermo_style custom step pe lx ly lz vol press step temp epair emol etotal
min_style cg 

timestep 0.0005

fix 1 all npt temp 300.0 300.0 0.1 iso 1.0 1.0 1.0

dump	 1 all atom 500 dump.lammpstrj

minimize 1e-25 1e-25 5000 10000 
#run 50000


